p cnf 165 6
-55 -92 -35 -155 -144 -64 -67 -165 -108 -91 -87 -130 -88 -37 -128 -39 -117 -6 -46 -9 -84 -160 128 129 130 5 6 7 8 9 134 12 140 142 141 144 145 149 150 155 156 157 27 158 160 33 35 36 165 38 39 37 46 50 54 55 60 64 67 70 71 82 84 87 88 89 91 92 103 108 111 117 119 120 0
-34 -49 -54 -82 -86 -100 -8 -158 -128 -62 -24 -39 -11 -148 -18 -129 -61 -58 -91 -57 -79 -3 -112 -22 -114 -136 -153 -48 -70 -83 -96 -105 -35 -97 -151 -157 -27 2 3 4 5 6 7 8 9 10 11 12 13 16 17 18 22 23 24 25 26 27 28 29 30 31 33 34 35 36 37 38 39 40 42 43 44 45 46 47 48 49 50 53 54 55 56 57 58 59 61 62 63 64 66 69 70 73 76 78 79 80 81 82 83 85 86 87 88 89 91 94 95 96 97 98 99 100 101 102 103 104 105 106 107 108 109 110 111 112 113 114 115 116 117 118 119 121 122 125 126 127 128 129 130 131 132 133 134 135 136 137 138 141 142 143 146 147 148 149 150 151 152 153 154 155 157 158 160 161 162 163 164 165 0
-119 -117 -147 -35 -24 -77 -162 -65 -159 -66 -137 -120 -4 -62 -88 -34 -13 -58 -28 -82 -23 -141 -5 -60 -154 -89 -44 -52 -136 -139 -118 -116 -40 -149 -37 -115 -36 -90 -53 -134 -109 -103 -84 -96 -79 -164 -15 -112 -39 -161 -152 -126 -150 -114 -104 -45 -6 -146 -132 -111 -145 -163 -56 -12 -30 -151 -14 -57 -21 -72 -107 -105 -32 -61 -73 -26 -135 -102 -153 -9 -156 -16 -160 -47 -110 -25 -7 -108 -123 -68 -138 -100 -50 -49 -113 -131 -87 -59 -83 -3 -85 -8 -43 -20 -48 -142 -98 -22 -55 -27 -10 -1 -157 -91 -51 -2 1 2 3 4 5 6 7 8 9 10 12 13 14 15 16 17 18 20 21 22 23 24 25 26 27 28 29 30 32 33 34 35 36 37 39 40 41 43 44 45 47 48 49 50 51 52 53 55 56 57 58 59 60 61 62 64 65 66 67 68 69 70 71 72 73 74 76 77 78 79 82 83 84 85 87 88 89 90 91 93 94 95 96 98 99 100 101 102 103 104 105 107 108 109 110 111 112 113 114 115 116 117 118 119 120 121 122 123 124 126 128 129 130 131 132 134 135 136 137 138 139 141 142 143 145 146 147 149 150 151 152 153 154 155 156 157 158 159 160 161 162 163 164 0
-47 -105 -55 -40 -147 -117 -38 -16 -5 1 3 4 5 7 8 9 10 11 12 14 15 16 19 21 22 23 24 25 26 28 30 32 33 34 35 36 38 39 40 41 42 44 45 46 47 48 51 52 53 54 55 56 57 58 59 62 64 67 69 70 72 73 76 80 81 82 83 85 86 87 89 91 94 95 97 98 100 101 102 103 104 105 107 111 112 113 115 116 117 118 123 124 125 126 127 129 131 133 135 136 137 138 140 141 143 144 145 146 147 148 149 150 151 153 155 156 158 160 161 162 163 164 165 0
-14 -8 -13 -83 -52 -88 -65 -142 -66 129 133 8 13 14 142 156 40 52 65 66 79 83 84 88 96 104 113 117 119 0
-155 -22 -110 -68 -104 -31 -65 -50 -53 -13 -125 -115 -58 -40 -4 -151 -114 -134 -28 -153 -43 -120 -78 -60 -29 -91 -136 -27 -9 -21 -135 -10 1 2 3 4 5 6 7 8 9 10 11 12 13 14 15 16 17 18 19 20 21 22 23 24 25 26 27 28 29 30 31 32 33 34 35 37 38 39 40 41 42 43 44 45 46 47 48 49 50 51 52 53 54 55 56 57 58 59 60 61 62 63 64 65 66 67 68 69 70 71 72 73 74 75 76 77 78 79 80 81 82 83 84 85 86 87 88 89 90 91 92 93 94 95 96 97 98 99 100 101 102 103 104 105 106 107 108 109 110 111 112 114 115 116 117 118 119 120 121 122 123 124 125 126 127 128 129 130 131 132 133 134 135 136 137 139 140 141 142 143 144 145 146 147 148 149 150 151 152 153 154 155 156 157 158 159 160 161 162 163 165 0
